%%% static parameters %%%
timespan = 1;
Fact = [2];
Distr1 = [5];
Distr2 = [10];
Clients_N = [60];
Demand_W = [15];
Lt0 = [4];
Lt1 = [4];
SS_ = [0.85];
DS_D = [8];
K = [200];
MA = [500];
%%% dynamic parameters %%%
lost_ratio_sales_ret_th = 0.7701109959302609;
lost_ratio_sales_ret_w = 95;
lost_ratio_sales_dis_th = 0.8629829449378343;
lost_ratio_sales_dis_w = 72;
lost_ratio_sales_fac_th = 0.9379981024567337;
lost_ratio_sales_fac_w = 95;
stock_customer_MA_mean_relative_th = 0.5353633718213074;
stock_customer_MA_mean_relative_w = 4;
stock_distributor_MA_mean_relative_th = 0.9889691134541432;
stock_distributor_MA_mean_relative_w = 9;
stock_retailer_MA_mean_relative_th = 0.45228256677585454;
stock_retailer_MA_mean_relative_w = 28;
stock_factory_MA_mean_relative_th = 0.5871380597566086;
stock_factory_MA_mean_relative_w = 59;
